p cnf 200 1110
-101 78 0
-101 51 0
-101 -77 0
-101 94 0
-101 -72 0
-101 -42 0
-101 -39 0
-101 -30 0
-101 -99 0
-101 -41 0
101 -78 -51 77 -94 72 42 39 30 99 41 0
-102 8 0
-102 69 0
-102 64 0
-102 46 0
-102 18 0
-102 5 0
-102 36 0
-102 82 0
-102 43 0
-102 57 0
102 -8 -69 -64 -46 -18 -5 -36 -82 -43 -57 0
-103 -89 0
-103 -10 0
-103 -90 0
-103 -24 0
-103 38 0
-103 -1 0
-103 -50 0
-103 49 0
-103 -87 0
-103 -63 0
103 89 10 90 24 -38 1 50 -49 87 63 0
-104 -82 0
-104 41 0
-104 79 0
-104 75 0
-104 95 0
-104 -99 0
-104 -36 0
-104 -97 0
-104 59 0
-104 -51 0
104 82 -41 -79 -75 -95 99 36 97 -59 51 0
-105 -45 0
-105 48 0
-105 84 0
-105 -25 0
-105 51 0
-105 -38 0
-105 -65 0
-105 -87 0
-105 -83 0
-105 26 0
105 45 -48 -84 25 -51 38 65 87 83 -26 0
-106 80 0
-106 28 0
-106 -69 0
-106 -84 0
-106 94 0
-106 -65 0
-106 40 0
-106 41 0
-106 47 0
-106 -51 0
106 -80 -28 69 84 -94 65 -40 -41 -47 51 0
-107 91 0
-107 -98 0
-107 30 0
-107 -27 0
-107 28 0
-107 -100 0
-107 56 0
-107 -68 0
-107 -93 0
-107 23 0
107 -91 98 -30 27 -28 100 -56 68 93 -23 0
-108 -41 0
-108 -44 0
-108 57 0
-108 -90 0
-108 40 0
-108 -82 0
-108 -87 0
-108 -88 0
-108 35 0
-108 -25 0
108 41 44 -57 90 -40 82 87 88 -35 25 0
-109 -35 0
-109 9 0
-109 93 0
-109 7 0
-109 -30 0
-109 -5 0
-109 58 0
-109 78 0
-109 62 0
-109 67 0
109 35 -9 -93 -7 30 5 -58 -78 -62 -67 0
-110 -98 0
-110 -11 0
-110 -19 0
-110 -7 0
-110 14 0
-110 12 0
-110 71 0
-110 -52 0
-110 60 0
-110 65 0
110 98 11 19 7 -14 -12 -71 52 -60 -65 0
101 102 103 104 105 106 107 108 109 110 0
-111 14 0
-111 98 0
-111 82 0
-111 -56 0
-111 -47 0
-111 85 0
-111 27 0
-111 80 0
-111 -44 0
-111 36 0
111 -14 -98 -82 56 47 -85 -27 -80 44 -36 0
-112 -93 0
-112 -22 0
-112 69 0
-112 -94 0
-112 -73 0
-112 14 0
-112 -61 0
-112 -3 0
-112 1 0
-112 -59 0
112 93 22 -69 94 73 -14 61 3 -1 59 0
-113 -6 0
-113 12 0
-113 -97 0
-113 82 0
-113 25 0
-113 62 0
-113 24 0
-113 -10 0
-113 -43 0
-113 78 0
113 6 -12 97 -82 -25 -62 -24 10 43 -78 0
-114 -23 0
-114 -2 0
-114 -13 0
-114 100 0
-114 83 0
-114 93 0
-114 49 0
-114 11 0
-114 -45 0
-114 37 0
114 23 2 13 -100 -83 -93 -49 -11 45 -37 0
-115 -46 0
-115 -18 0
-115 -29 0
-115 -60 0
-115 91 0
-115 45 0
-115 36 0
-115 14 0
-115 76 0
-115 100 0
115 46 18 29 60 -91 -45 -36 -14 -76 -100 0
-116 67 0
-116 -48 0
-116 7 0
-116 -14 0
-116 50 0
-116 13 0
-116 -76 0
-116 27 0
-116 70 0
-116 -80 0
116 -67 48 -7 14 -50 -13 76 -27 -70 80 0
-117 -8 0
-117 70 0
-117 -98 0
-117 24 0
-117 -69 0
-117 27 0
-117 6 0
-117 34 0
-117 -56 0
-117 78 0
117 8 -70 98 -24 69 -27 -6 -34 56 -78 0
-118 -67 0
-118 -66 0
-118 -57 0
-118 22 0
-118 32 0
-118 -47 0
-118 -87 0
-118 -30 0
-118 -14 0
-118 -61 0
118 67 66 57 -22 -32 47 87 30 14 61 0
-119 13 0
-119 87 0
-119 -8 0
-119 77 0
-119 93 0
-119 11 0
-119 63 0
-119 -72 0
-119 59 0
-119 54 0
119 -13 -87 8 -77 -93 -11 -63 72 -59 -54 0
-120 -83 0
-120 -23 0
-120 15 0
-120 25 0
-120 -79 0
-120 45 0
-120 90 0
-120 -81 0
-120 -1 0
-120 -76 0
120 83 23 -15 -25 79 -45 -90 81 1 76 0
111 112 113 114 115 116 117 118 119 120 0
-121 97 0
-121 -21 0
-121 44 0
-121 -16 0
-121 24 0
-121 64 0
-121 -36 0
-121 -90 0
-121 28 0
-121 85 0
121 -97 21 -44 16 -24 -64 36 90 -28 -85 0
-122 20 0
-122 67 0
-122 25 0
-122 -93 0
-122 -26 0
-122 78 0
-122 13 0
-122 -27 0
-122 57 0
-122 72 0
122 -20 -67 -25 93 26 -78 -13 27 -57 -72 0
-123 96 0
-123 -100 0
-123 -25 0
-123 -10 0
-123 59 0
-123 -1 0
-123 -46 0
-123 -17 0
-123 88 0
-123 40 0
123 -96 100 25 10 -59 1 46 17 -88 -40 0
-124 -5 0
-124 -53 0
-124 52 0
-124 30 0
-124 73 0
-124 78 0
-124 7 0
-124 41 0
-124 -79 0
-124 -77 0
124 5 53 -52 -30 -73 -78 -7 -41 79 77 0
-125 67 0
-125 99 0
-125 -2 0
-125 91 0
-125 89 0
-125 -69 0
-125 -95 0
-125 -36 0
-125 -26 0
-125 -57 0
125 -67 -99 2 -91 -89 69 95 36 26 57 0
-126 41 0
-126 73 0
-126 -83 0
-126 -60 0
-126 -57 0
-126 -2 0
-126 17 0
-126 32 0
-126 47 0
-126 68 0
126 -41 -73 83 60 57 2 -17 -32 -47 -68 0
-127 -88 0
-127 83 0
-127 -91 0
-127 -15 0
-127 32 0
-127 89 0
-127 -16 0
-127 41 0
-127 11 0
-127 69 0
127 88 -83 91 15 -32 -89 16 -41 -11 -69 0
-128 -76 0
-128 -57 0
-128 3 0
-128 -64 0
-128 26 0
-128 44 0
-128 46 0
-128 16 0
-128 -22 0
-128 -79 0
128 76 57 -3 64 -26 -44 -46 -16 22 79 0
-129 -12 0
-129 77 0
-129 72 0
-129 -54 0
-129 11 0
-129 15 0
-129 44 0
-129 -37 0
-129 27 0
-129 74 0
129 12 -77 -72 54 -11 -15 -44 37 -27 -74 0
-130 -75 0
-130 55 0
-130 90 0
-130 -48 0
-130 -76 0
-130 -18 0
-130 -40 0
-130 -26 0
-130 95 0
-130 -28 0
130 75 -55 -90 48 76 18 40 26 -95 28 0
121 122 123 124 125 126 127 128 129 130 0
-131 -11 0
-131 -49 0
-131 -3 0
-131 82 0
-131 -4 0
-131 79 0
-131 -9 0
-131 -67 0
-131 76 0
-131 -44 0
131 11 49 3 -82 4 -79 9 67 -76 44 0
-132 -98 0
-132 19 0
-132 -4 0
-132 2 0
-132 16 0
-132 7 0
-132 62 0
-132 -9 0
-132 85 0
-132 66 0
132 98 -19 4 -2 -16 -7 -62 9 -85 -66 0
-133 46 0
-133 -92 0
-133 -3 0
-133 2 0
-133 -33 0
-133 -76 0
-133 -40 0
-133 -100 0
-133 20 0
-133 -91 0
133 -46 92 3 -2 33 76 40 100 -20 91 0
-134 73 0
-134 -22 0
-134 -85 0
-134 6 0
-134 95 0
-134 -15 0
-134 -56 0
-134 -86 0
-134 -37 0
-134 47 0
134 -73 22 85 -6 -95 15 56 86 37 -47 0
-135 67 0
-135 62 0
-135 -31 0
-135 -99 0
-135 -58 0
-135 55 0
-135 -70 0
-135 -26 0
-135 44 0
-135 95 0
135 -67 -62 31 99 58 -55 70 26 -44 -95 0
-136 20 0
-136 -70 0
-136 -83 0
-136 -6 0
-136 -84 0
-136 -42 0
-136 -95 0
-136 -87 0
-136 -28 0
-136 -93 0
136 -20 70 83 6 84 42 95 87 28 93 0
-137 -7 0
-137 80 0
-137 -5 0
-137 -97 0
-137 69 0
-137 -56 0
-137 -50 0
-137 33 0
-137 -42 0
-137 -44 0
137 7 -80 5 97 -69 56 50 -33 42 44 0
-138 -60 0
-138 -99 0
-138 -76 0
-138 -11 0
-138 19 0
-138 78 0
-138 -10 0
-138 51 0
-138 -14 0
-138 -37 0
138 60 99 76 11 -19 -78 10 -51 14 37 0
-139 6 0
-139 -50 0
-139 47 0
-139 41 0
-139 -97 0
-139 43 0
-139 61 0
-139 70 0
-139 -66 0
-139 -48 0
139 -6 50 -47 -41 97 -43 -61 -70 66 48 0
-140 95 0
-140 10 0
-140 71 0
-140 42 0
-140 -39 0
-140 -85 0
-140 -66 0
-140 81 0
-140 -24 0
-140 62 0
140 -95 -10 -71 -42 39 85 66 -81 24 -62 0
131 132 133 134 135 136 137 138 139 140 0
-141 -89 0
-141 1 0
-141 -90 0
-141 54 0
-141 -85 0
-141 -81 0
-141 86 0
-141 -75 0
-141 -66 0
-141 55 0
141 89 -1 90 -54 85 81 -86 75 66 -55 0
-142 90 0
-142 49 0
-142 -39 0
-142 75 0
-142 94 0
-142 -10 0
-142 40 0
-142 -48 0
-142 74 0
-142 15 0
142 -90 -49 39 -75 -94 10 -40 48 -74 -15 0
-143 62 0
-143 -11 0
-143 -82 0
-143 8 0
-143 98 0
-143 29 0
-143 85 0
-143 41 0
-143 -34 0
-143 -16 0
143 -62 11 82 -8 -98 -29 -85 -41 34 16 0
-144 -89 0
-144 12 0
-144 -21 0
-144 -79 0
-144 85 0
-144 100 0
-144 83 0
-144 -93 0
-144 -65 0
-144 59 0
144 89 -12 21 79 -85 -100 -83 93 65 -59 0
-145 -14 0
-145 77 0
-145 -81 0
-145 -8 0
-145 -13 0
-145 60 0
-145 62 0
-145 25 0
-145 29 0
-145 97 0
145 14 -77 81 8 13 -60 -62 -25 -29 -97 0
-146 19 0
-146 49 0
-146 -6 0
-146 -3 0
-146 28 0
-146 -43 0
-146 -42 0
-146 -58 0
-146 -38 0
-146 -92 0
146 -19 -49 6 3 -28 43 42 58 38 92 0
-147 50 0
-147 -23 0
-147 -100 0
-147 -29 0
-147 43 0
-147 98 0
-147 -55 0
-147 78 0
-147 1 0
-147 -54 0
147 -50 23 100 29 -43 -98 55 -78 -1 54 0
-148 -75 0
-148 -39 0
-148 83 0
-148 -93 0
-148 3 0
-148 -47 0
-148 37 0
-148 11 0
-148 40 0
-148 -59 0
148 75 39 -83 93 -3 47 -37 -11 -40 59 0
-149 -7 0
-149 100 0
-149 94 0
-149 -47 0
-149 36 0
-149 -30 0
-149 -89 0
-149 -33 0
-149 -4 0
-149 26 0
149 7 -100 -94 47 -36 30 89 33 4 -26 0
-150 93 0
-150 -60 0
-150 -56 0
-150 -83 0
-150 -6 0
-150 -65 0
-150 -29 0
-150 -68 0
-150 -13 0
-150 -25 0
150 -93 60 56 83 6 65 29 68 13 25 0
141 142 143 144 145 146 147 148 149 150 0
-151 -78 0
-151 -4 0
-151 48 0
-151 -33 0
-151 40 0
-151 58 0
-151 -20 0
-151 50 0
-151 -42 0
-151 -9 0
151 78 4 -48 33 -40 -58 20 -50 42 9 0
-152 -67 0
-152 -31 0
-152 -6 0
-152 58 0
-152 -74 0
-152 -78 0
-152 -29 0
-152 -10 0
-152 -84 0
-152 -94 0
152 67 31 6 -58 74 78 29 10 84 94 0
-153 64 0
-153 -40 0
-153 79 0
-153 1 0
-153 -56 0
-153 -52 0
-153 -81 0
-153 39 0
-153 63 0
-153 -98 0
153 -64 40 -79 -1 56 52 81 -39 -63 98 0
-154 -31 0
-154 -68 0
-154 -91 0
-154 28 0
-154 -65 0
-154 -9 0
-154 97 0
-154 -23 0
-154 -51 0
-154 -67 0
154 31 68 91 -28 65 9 -97 23 51 67 0
-155 -79 0
-155 -43 0
-155 -25 0
-155 -94 0
-155 -57 0
-155 93 0
-155 -67 0
-155 -26 0
-155 -17 0
-155 16 0
155 79 43 25 94 57 -93 67 26 17 -16 0
-156 -89 0
-156 -9 0
-156 54 0
-156 -72 0
-156 12 0
-156 -78 0
-156 -84 0
-156 -28 0
-156 -86 0
-156 -15 0
156 89 9 -54 72 -12 78 84 28 86 15 0
-157 -98 0
-157 -8 0
-157 62 0
-157 88 0
-157 -21 0
-157 19 0
-157 1 0
-157 -38 0
-157 -47 0
-157 -58 0
157 98 8 -62 -88 21 -19 -1 38 47 58 0
-158 -73 0
-158 48 0
-158 -70 0
-158 -83 0
-158 94 0
-158 76 0
-158 -32 0
-158 91 0
-158 -59 0
-158 -26 0
158 73 -48 70 83 -94 -76 32 -91 59 26 0
-159 -45 0
-159 -47 0
-159 -69 0
-159 -39 0
-159 9 0
-159 -90 0
-159 68 0
-159 -19 0
-159 21 0
-159 77 0
159 45 47 69 39 -9 90 -68 19 -21 -77 0
-160 -23 0
-160 -60 0
-160 -46 0
-160 -65 0
-160 19 0
-160 -48 0
-160 1 0
-160 88 0
-160 56 0
-160 -58 0
160 23 60 46 65 -19 48 -1 -88 -56 58 0
151 152 153 154 155 156 157 158 159 160 0
-161 -65 0
-161 -67 0
-161 -57 0
-161 -60 0
-161 -20 0
-161 51 0
-161 -90 0
-161 -4 0
-161 -96 0
-161 -72 0
161 65 67 57 60 20 -51 90 4 96 72 0
-162 -40 0
-162 98 0
-162 -35 0
-162 80 0
-162 37 0
-162 -72 0
-162 -32 0
-162 88 0
-162 11 0
-162 9 0
162 40 -98 35 -80 -37 72 32 -88 -11 -9 0
-163 -94 0
-163 -13 0
-163 63 0
-163 40 0
-163 5 0
-163 -57 0
-163 53 0
-163 -91 0
-163 -14 0
-163 47 0
163 94 13 -63 -40 -5 57 -53 91 14 -47 0
-164 -97 0
-164 -33 0
-164 98 0
-164 30 0
-164 44 0
-164 -16 0
-164 -23 0
-164 -1 0
-164 5 0
-164 55 0
164 97 33 -98 -30 -44 16 23 1 -5 -55 0
-165 -2 0
-165 37 0
-165 -15 0
-165 -71 0
-165 95 0
-165 -17 0
-165 41 0
-165 -30 0
-165 40 0
-165 52 0
165 2 -37 15 71 -95 17 -41 30 -40 -52 0
-166 -48 0
-166 51 0
-166 -73 0
-166 -10 0
-166 19 0
-166 -23 0
-166 41 0
-166 39 0
-166 -67 0
-166 -63 0
166 48 -51 73 10 -19 23 -41 -39 67 63 0
-167 27 0
-167 50 0
-167 75 0
-167 -19 0
-167 -89 0
-167 15 0
-167 -5 0
-167 11 0
-167 -84 0
-167 -53 0
167 -27 -50 -75 19 89 -15 5 -11 84 53 0
-168 -90 0
-168 65 0
-168 69 0
-168 -28 0
-168 89 0
-168 -5 0
-168 -73 0
-168 87 0
-168 -32 0
-168 -67 0
168 90 -65 -69 28 -89 5 73 -87 32 67 0
-169 -61 0
-169 50 0
-169 -97 0
-169 -65 0
-169 42 0
-169 -57 0
-169 -78 0
-169 -2 0
-169 -14 0
-169 -75 0
169 61 -50 97 65 -42 57 78 2 14 75 0
-170 81 0
-170 35 0
-170 1 0
-170 47 0
-170 100 0
-170 -44 0
-170 88 0
-170 -58 0
-170 -5 0
-170 -28 0
170 -81 -35 -1 -47 -100 44 -88 58 5 28 0
161 162 163 164 165 166 167 168 169 170 0
-171 -51 0
-171 6 0
-171 -90 0
-171 79 0
-171 -100 0
-171 62 0
-171 -15 0
-171 42 0
-171 72 0
-171 92 0
171 51 -6 90 -79 100 -62 15 -42 -72 -92 0
-172 -47 0
-172 -24 0
-172 -23 0
-172 29 0
-172 60 0
-172 -19 0
-172 -28 0
-172 80 0
-172 25 0
-172 48 0
172 47 24 23 -29 -60 19 28 -80 -25 -48 0
-173 81 0
-173 -85 0
-173 64 0
-173 75 0
-173 -7 0
-173 83 0
-173 -10 0
-173 -95 0
-173 3 0
-173 22 0
173 -81 85 -64 -75 7 -83 10 95 -3 -22 0
-174 -43 0
-174 94 0
-174 2 0
-174 -6 0
-174 39 0
-174 70 0
-174 98 0
-174 -33 0
-174 -1 0
-174 -45 0
174 43 -94 -2 6 -39 -70 -98 33 1 45 0
-175 -66 0
-175 16 0
-175 -7 0
-175 52 0
-175 77 0
-175 -50 0
-175 47 0
-175 -12 0
-175 99 0
-175 75 0
175 66 -16 7 -52 -77 50 -47 12 -99 -75 0
-176 11 0
-176 -71 0
-176 81 0
-176 38 0
-176 37 0
-176 -52 0
-176 -69 0
-176 6 0
-176 40 0
-176 75 0
176 -11 71 -81 -38 -37 52 69 -6 -40 -75 0
-177 32 0
-177 -4 0
-177 5 0
-177 -9 0
-177 -86 0
-177 19 0
-177 -66 0
-177 -13 0
-177 53 0
-177 59 0
177 -32 4 -5 9 86 -19 66 13 -53 -59 0
-178 -70 0
-178 85 0
-178 61 0
-178 98 0
-178 -14 0
-178 64 0
-178 48 0
-178 -49 0
-178 29 0
-178 -41 0
178 70 -85 -61 -98 14 -64 -48 49 -29 41 0
-179 27 0
-179 -51 0
-179 -96 0
-179 46 0
-179 75 0
-179 -72 0
-179 -90 0
-179 -18 0
-179 61 0
-179 15 0
179 -27 51 96 -46 -75 72 90 18 -61 -15 0
-180 53 0
-180 23 0
-180 -82 0
-180 24 0
-180 -42 0
-180 12 0
-180 -83 0
-180 -7 0
-180 28 0
-180 -80 0
180 -53 -23 82 -24 42 -12 83 7 -28 80 0
171 172 173 174 175 176 177 178 179 180 0
-181 -72 0
-181 66 0
-181 -79 0
-181 -60 0
-181 -74 0
-181 1 0
-181 39 0
-181 -6 0
-181 -95 0
-181 73 0
181 72 -66 79 60 74 -1 -39 6 95 -73 0
-182 -29 0
-182 82 0
-182 -30 0
-182 -32 0
-182 97 0
-182 50 0
-182 -43 0
-182 40 0
-182 15 0
-182 -100 0
182 29 -82 30 32 -97 -50 43 -40 -15 100 0
-183 -8 0
-183 -14 0
-183 79 0
-183 60 0
-183 -92 0
-183 -40 0
-183 94 0
-183 96 0
-183 35 0
-183 -63 0
183 8 14 -79 -60 92 40 -94 -96 -35 63 0
-184 -67 0
-184 22 0
-184 64 0
-184 62 0
-184 -26 0
-184 -73 0
-184 13 0
-184 -84 0
-184 71 0
-184 15 0
184 67 -22 -64 -62 26 73 -13 84 -71 -15 0
-185 90 0
-185 -65 0
-185 12 0
-185 56 0
-185 -49 0
-185 1 0
-185 -70 0
-185 -64 0
-185 15 0
-185 -50 0
185 -90 65 -12 -56 49 -1 70 64 -15 50 0
-186 -60 0
-186 -29 0
-186 -89 0
-186 -22 0
-186 100 0
-186 -55 0
-186 32 0
-186 91 0
-186 10 0
-186 -49 0
186 60 29 89 22 -100 55 -32 -91 -10 49 0
-187 -5 0
-187 93 0
-187 -72 0
-187 -38 0
-187 48 0
-187 19 0
-187 -32 0
-187 -85 0
-187 77 0
-187 37 0
187 5 -93 72 38 -48 -19 32 85 -77 -37 0
-188 79 0
-188 96 0
-188 38 0
-188 39 0
-188 -14 0
-188 41 0
-188 -29 0
-188 88 0
-188 7 0
-188 83 0
188 -79 -96 -38 -39 14 -41 29 -88 -7 -83 0
-189 56 0
-189 31 0
-189 -68 0
-189 62 0
-189 60 0
-189 -37 0
-189 -7 0
-189 90 0
-189 -80 0
-189 -48 0
189 -56 -31 68 -62 -60 37 7 -90 80 48 0
-190 22 0
-190 91 0
-190 63 0
-190 -41 0
-190 100 0
-190 12 0
-190 90 0
-190 26 0
-190 62 0
-190 -98 0
190 -22 -91 -63 41 -100 -12 -90 -26 -62 98 0
181 182 183 184 185 186 187 188 189 190 0
-191 -9 0
-191 -52 0
-191 -71 0
-191 54 0
-191 88 0
-191 55 0
-191 -84 0
-191 -94 0
-191 -26 0
-191 13 0
191 9 52 71 -54 -88 -55 84 94 26 -13 0
-192 -88 0
-192 -86 0
-192 69 0
-192 -87 0
-192 -84 0
-192 82 0
-192 9 0
-192 64 0
-192 -26 0
-192 -30 0
192 88 86 -69 87 84 -82 -9 -64 26 30 0
-193 -44 0
-193 -95 0
-193 -38 0
-193 -93 0
-193 -58 0
-193 -56 0
-193 15 0
-193 77 0
-193 -62 0
-193 91 0
193 44 95 38 93 58 56 -15 -77 62 -91 0
-194 5 0
-194 61 0
-194 -55 0
-194 90 0
-194 -89 0
-194 75 0
-194 -99 0
-194 35 0
-194 3 0
-194 53 0
194 -5 -61 55 -90 89 -75 99 -35 -3 -53 0
-195 47 0
-195 -72 0
-195 -30 0
-195 11 0
-195 80 0
-195 53 0
-195 15 0
-195 26 0
-195 -31 0
-195 -85 0
195 -47 72 30 -11 -80 -53 -15 -26 31 85 0
-196 34 0
-196 -43 0
-196 18 0
-196 44 0
-196 -15 0
-196 10 0
-196 -28 0
-196 17 0
-196 -94 0
-196 35 0
196 -34 43 -18 -44 15 -10 28 -17 94 -35 0
-197 -20 0
-197 -89 0
-197 -75 0
-197 23 0
-197 82 0
-197 -71 0
-197 87 0
-197 -99 0
-197 -36 0
-197 53 0
197 20 89 75 -23 -82 71 -87 99 36 -53 0
-198 84 0
-198 -16 0
-198 37 0
-198 -5 0
-198 88 0
-198 17 0
-198 77 0
-198 -61 0
-198 -73 0
-198 51 0
198 -84 16 -37 5 -88 -17 -77 61 73 -51 0
-199 -87 0
-199 52 0
-199 -66 0
-199 47 0
-199 -29 0
-199 19 0
-199 36 0
-199 -79 0
-199 -75 0
-199 5 0
199 87 -52 66 -47 29 -19 -36 79 75 -5 0
-200 9 0
-200 92 0
-200 79 0
-200 -90 0
-200 89 0
-200 -30 0
-200 46 0
-200 93 0
-200 3 0
-200 -40 0
200 -9 -92 -79 90 -89 30 -46 -93 -3 40 0
191 192 193 194 195 196 197 198 199 200 0
